# vtk DataFile Version 3.0
Arquivo gerado por PZ
ASCII

DATASET UNSTRUCTURED_GRID
POINTS 400 float
-1 -1 0
-1 -0.875 0
-1 -0.75 0
-1 -0.625 0
-1 -0.5 0
-0.875 -1 0
-0.875 -0.875 0
-0.875 -0.75 0
-0.875 -0.625 0
-0.875 -0.5 0
-0.75 -1 0
-0.75 -0.875 0
-0.75 -0.75 0
-0.75 -0.625 0
-0.75 -0.5 0
-0.625 -1 0
-0.625 -0.875 0
-0.625 -0.75 0
-0.625 -0.625 0
-0.625 -0.5 0
-0.5 -1 0
-0.5 -0.875 0
-0.5 -0.75 0
-0.5 -0.625 0
-0.5 -0.5 0
-0.5 -1 0
-0.5 -0.875 0
-0.5 -0.75 0
-0.5 -0.625 0
-0.5 -0.5 0
-0.375 -1 0
-0.375 -0.875 0
-0.375 -0.75 0
-0.375 -0.625 0
-0.375 -0.5 0
-0.25 -1 0
-0.25 -0.875 0
-0.25 -0.75 0
-0.25 -0.625 0
-0.25 -0.5 0
-0.125 -1 0
-0.125 -0.875 0
-0.125 -0.75 0
-0.125 -0.625 0
-0.125 -0.5 0
0 -1 0
0 -0.875 0
0 -0.75 0
0 -0.625 0
0 -0.5 0
0 -1 0
0 -0.875 0
0 -0.75 0
0 -0.625 0
0 -0.5 0
0.125 -1 0
0.125 -0.875 0
0.125 -0.75 0
0.125 -0.625 0
0.125 -0.5 0
0.25 -1 0
0.25 -0.875 0
0.25 -0.75 0
0.25 -0.625 0
0.25 -0.5 0
0.375 -1 0
0.375 -0.875 0
0.375 -0.75 0
0.375 -0.625 0
0.375 -0.5 0
0.5 -1 0
0.5 -0.875 0
0.5 -0.75 0
0.5 -0.625 0
0.5 -0.5 0
0.5 -1 0
0.5 -0.875 0
0.5 -0.75 0
0.5 -0.625 0
0.5 -0.5 0
0.625 -1 0
0.625 -0.875 0
0.625 -0.75 0
0.625 -0.625 0
0.625 -0.5 0
0.75 -1 0
0.75 -0.875 0
0.75 -0.75 0
0.75 -0.625 0
0.75 -0.5 0
0.875 -1 0
0.875 -0.875 0
0.875 -0.75 0
0.875 -0.625 0
0.875 -0.5 0
1 -1 0
1 -0.875 0
1 -0.75 0
1 -0.625 0
1 -0.5 0
-1 -0.5 0
-1 -0.375 0
-1 -0.25 0
-1 -0.125 0
-1 0 0
-0.875 -0.5 0
-0.875 -0.375 0
-0.875 -0.25 0
-0.875 -0.125 0
-0.875 0 0
-0.75 -0.5 0
-0.75 -0.375 0
-0.75 -0.25 0
-0.75 -0.125 0
-0.75 0 0
-0.625 -0.5 0
-0.625 -0.375 0
-0.625 -0.25 0
-0.625 -0.125 0
-0.625 0 0
-0.5 -0.5 0
-0.5 -0.375 0
-0.5 -0.25 0
-0.5 -0.125 0
-0.5 0 0
-0.5 -0.5 0
-0.5 -0.375 0
-0.5 -0.25 0
-0.5 -0.125 0
-0.5 0 0
-0.375 -0.5 0
-0.375 -0.375 0
-0.375 -0.25 0
-0.375 -0.125 0
-0.375 0 0
-0.25 -0.5 0
-0.25 -0.375 0
-0.25 -0.25 0
-0.25 -0.125 0
-0.25 0 0
-0.125 -0.5 0
-0.125 -0.375 0
-0.125 -0.25 0
-0.125 -0.125 0
-0.125 0 0
0 -0.5 0
0 -0.375 0
0 -0.25 0
0 -0.125 0
0 0 0
0 -0.5 0
0 -0.375 0
0 -0.25 0
0 -0.125 0
0 0 0
0.125 -0.5 0
0.125 -0.375 0
0.125 -0.25 0
0.125 -0.125 0
0.125 0 0
0.25 -0.5 0
0.25 -0.375 0
0.25 -0.25 0
0.25 -0.125 0
0.25 0 0
0.375 -0.5 0
0.375 -0.375 0
0.375 -0.25 0
0.375 -0.125 0
0.375 0 0
0.5 -0.5 0
0.5 -0.375 0
0.5 -0.25 0
0.5 -0.125 0
0.5 0 0
0.5 -0.5 0
0.5 -0.375 0
0.5 -0.25 0
0.5 -0.125 0
0.5 0 0
0.625 -0.5 0
0.625 -0.375 0
0.625 -0.25 0
0.625 -0.125 0
0.625 0 0
0.75 -0.5 0
0.75 -0.375 0
0.75 -0.25 0
0.75 -0.125 0
0.75 0 0
0.875 -0.5 0
0.875 -0.375 0
0.875 -0.25 0
0.875 -0.125 0
0.875 0 0
1 -0.5 0
1 -0.375 0
1 -0.25 0
1 -0.125 0
1 0 0
-1 0 0
-1 0.125 0
-1 0.25 0
-1 0.375 0
-1 0.5 0
-0.875 0 0
-0.875 0.125 0
-0.875 0.25 0
-0.875 0.375 0
-0.875 0.5 0
-0.75 0 0
-0.75 0.125 0
-0.75 0.25 0
-0.75 0.375 0
-0.75 0.5 0
-0.625 0 0
-0.625 0.125 0
-0.625 0.25 0
-0.625 0.375 0
-0.625 0.5 0
-0.5 0 0
-0.5 0.125 0
-0.5 0.25 0
-0.5 0.375 0
-0.5 0.5 0
-0.5 0 0
-0.5 0.125 0
-0.5 0.25 0
-0.5 0.375 0
-0.5 0.5 0
-0.375 0 0
-0.375 0.125 0
-0.375 0.25 0
-0.375 0.375 0
-0.375 0.5 0
-0.25 0 0
-0.25 0.125 0
-0.25 0.25 0
-0.25 0.375 0
-0.25 0.5 0
-0.125 0 0
-0.125 0.125 0
-0.125 0.25 0
-0.125 0.375 0
-0.125 0.5 0
0 0 0
0 0.125 0
0 0.25 0
0 0.375 0
0 0.5 0
0 0 0
0 0.125 0
0 0.25 0
0 0.375 0
0 0.5 0
0.125 0 0
0.125 0.125 0
0.125 0.25 0
0.125 0.375 0
0.125 0.5 0
0.25 0 0
0.25 0.125 0
0.25 0.25 0
0.25 0.375 0
0.25 0.5 0
0.375 0 0
0.375 0.125 0
0.375 0.25 0
0.375 0.375 0
0.375 0.5 0
0.5 0 0
0.5 0.125 0
0.5 0.25 0
0.5 0.375 0
0.5 0.5 0
0.5 0 0
0.5 0.125 0
0.5 0.25 0
0.5 0.375 0
0.5 0.5 0
0.625 0 0
0.625 0.125 0
0.625 0.25 0
0.625 0.375 0
0.625 0.5 0
0.75 0 0
0.75 0.125 0
0.75 0.25 0
0.75 0.375 0
0.75 0.5 0
0.875 0 0
0.875 0.125 0
0.875 0.25 0
0.875 0.375 0
0.875 0.5 0
1 0 0
1 0.125 0
1 0.25 0
1 0.375 0
1 0.5 0
-1 0.5 0
-1 0.625 0
-1 0.75 0
-1 0.875 0
-1 1 0
-0.875 0.5 0
-0.875 0.625 0
-0.875 0.75 0
-0.875 0.875 0
-0.875 1 0
-0.75 0.5 0
-0.75 0.625 0
-0.75 0.75 0
-0.75 0.875 0
-0.75 1 0
-0.625 0.5 0
-0.625 0.625 0
-0.625 0.75 0
-0.625 0.875 0
-0.625 1 0
-0.5 0.5 0
-0.5 0.625 0
-0.5 0.75 0
-0.5 0.875 0
-0.5 1 0
-0.5 0.5 0
-0.5 0.625 0
-0.5 0.75 0
-0.5 0.875 0
-0.5 1 0
-0.375 0.5 0
-0.375 0.625 0
-0.375 0.75 0
-0.375 0.875 0
-0.375 1 0
-0.25 0.5 0
-0.25 0.625 0
-0.25 0.75 0
-0.25 0.875 0
-0.25 1 0
-0.125 0.5 0
-0.125 0.625 0
-0.125 0.75 0
-0.125 0.875 0
-0.125 1 0
0 0.5 0
0 0.625 0
0 0.75 0
0 0.875 0
0 1 0
0 0.5 0
0 0.625 0
0 0.75 0
0 0.875 0
0 1 0
0.125 0.5 0
0.125 0.625 0
0.125 0.75 0
0.125 0.875 0
0.125 1 0
0.25 0.5 0
0.25 0.625 0
0.25 0.75 0
0.25 0.875 0
0.25 1 0
0.375 0.5 0
0.375 0.625 0
0.375 0.75 0
0.375 0.875 0
0.375 1 0
0.5 0.5 0
0.5 0.625 0
0.5 0.75 0
0.5 0.875 0
0.5 1 0
0.5 0.5 0
0.5 0.625 0
0.5 0.75 0
0.5 0.875 0
0.5 1 0
0.625 0.5 0
0.625 0.625 0
0.625 0.75 0
0.625 0.875 0
0.625 1 0
0.75 0.5 0
0.75 0.625 0
0.75 0.75 0
0.75 0.875 0
0.75 1 0
0.875 0.5 0
0.875 0.625 0
0.875 0.75 0
0.875 0.875 0
0.875 1 0
1 0.5 0
1 0.625 0
1 0.75 0
1 0.875 0
1 1 0

CELLS 256 1280
4 0 5 6 1
4 1 6 7 2
4 2 7 8 3
4 3 8 9 4
4 5 10 11 6
4 6 11 12 7
4 7 12 13 8
4 8 13 14 9
4 10 15 16 11
4 11 16 17 12
4 12 17 18 13
4 13 18 19 14
4 15 20 21 16
4 16 21 22 17
4 17 22 23 18
4 18 23 24 19
4 25 30 31 26
4 26 31 32 27
4 27 32 33 28
4 28 33 34 29
4 30 35 36 31
4 31 36 37 32
4 32 37 38 33
4 33 38 39 34
4 35 40 41 36
4 36 41 42 37
4 37 42 43 38
4 38 43 44 39
4 40 45 46 41
4 41 46 47 42
4 42 47 48 43
4 43 48 49 44
4 50 55 56 51
4 51 56 57 52
4 52 57 58 53
4 53 58 59 54
4 55 60 61 56
4 56 61 62 57
4 57 62 63 58
4 58 63 64 59
4 60 65 66 61
4 61 66 67 62
4 62 67 68 63
4 63 68 69 64
4 65 70 71 66
4 66 71 72 67
4 67 72 73 68
4 68 73 74 69
4 75 80 81 76
4 76 81 82 77
4 77 82 83 78
4 78 83 84 79
4 80 85 86 81
4 81 86 87 82
4 82 87 88 83
4 83 88 89 84
4 85 90 91 86
4 86 91 92 87
4 87 92 93 88
4 88 93 94 89
4 90 95 96 91
4 91 96 97 92
4 92 97 98 93
4 93 98 99 94
4 100 105 106 101
4 101 106 107 102
4 102 107 108 103
4 103 108 109 104
4 105 110 111 106
4 106 111 112 107
4 107 112 113 108
4 108 113 114 109
4 110 115 116 111
4 111 116 117 112
4 112 117 118 113
4 113 118 119 114
4 115 120 121 116
4 116 121 122 117
4 117 122 123 118
4 118 123 124 119
4 125 130 131 126
4 126 131 132 127
4 127 132 133 128
4 128 133 134 129
4 130 135 136 131
4 131 136 137 132
4 132 137 138 133
4 133 138 139 134
4 135 140 141 136
4 136 141 142 137
4 137 142 143 138
4 138 143 144 139
4 140 145 146 141
4 141 146 147 142
4 142 147 148 143
4 143 148 149 144
4 150 155 156 151
4 151 156 157 152
4 152 157 158 153
4 153 158 159 154
4 155 160 161 156
4 156 161 162 157
4 157 162 163 158
4 158 163 164 159
4 160 165 166 161
4 161 166 167 162
4 162 167 168 163
4 163 168 169 164
4 165 170 171 166
4 166 171 172 167
4 167 172 173 168
4 168 173 174 169
4 175 180 181 176
4 176 181 182 177
4 177 182 183 178
4 178 183 184 179
4 180 185 186 181
4 181 186 187 182
4 182 187 188 183
4 183 188 189 184
4 185 190 191 186
4 186 191 192 187
4 187 192 193 188
4 188 193 194 189
4 190 195 196 191
4 191 196 197 192
4 192 197 198 193
4 193 198 199 194
4 200 205 206 201
4 201 206 207 202
4 202 207 208 203
4 203 208 209 204
4 205 210 211 206
4 206 211 212 207
4 207 212 213 208
4 208 213 214 209
4 210 215 216 211
4 211 216 217 212
4 212 217 218 213
4 213 218 219 214
4 215 220 221 216
4 216 221 222 217
4 217 222 223 218
4 218 223 224 219
4 225 230 231 226
4 226 231 232 227
4 227 232 233 228
4 228 233 234 229
4 230 235 236 231
4 231 236 237 232
4 232 237 238 233
4 233 238 239 234
4 235 240 241 236
4 236 241 242 237
4 237 242 243 238
4 238 243 244 239
4 240 245 246 241
4 241 246 247 242
4 242 247 248 243
4 243 248 249 244
4 250 255 256 251
4 251 256 257 252
4 252 257 258 253
4 253 258 259 254
4 255 260 261 256
4 256 261 262 257
4 257 262 263 258
4 258 263 264 259
4 260 265 266 261
4 261 266 267 262
4 262 267 268 263
4 263 268 269 264
4 265 270 271 266
4 266 271 272 267
4 267 272 273 268
4 268 273 274 269
4 275 280 281 276
4 276 281 282 277
4 277 282 283 278
4 278 283 284 279
4 280 285 286 281
4 281 286 287 282
4 282 287 288 283
4 283 288 289 284
4 285 290 291 286
4 286 291 292 287
4 287 292 293 288
4 288 293 294 289
4 290 295 296 291
4 291 296 297 292
4 292 297 298 293
4 293 298 299 294
4 300 305 306 301
4 301 306 307 302
4 302 307 308 303
4 303 308 309 304
4 305 310 311 306
4 306 311 312 307
4 307 312 313 308
4 308 313 314 309
4 310 315 316 311
4 311 316 317 312
4 312 317 318 313
4 313 318 319 314
4 315 320 321 316
4 316 321 322 317
4 317 322 323 318
4 318 323 324 319
4 325 330 331 326
4 326 331 332 327
4 327 332 333 328
4 328 333 334 329
4 330 335 336 331
4 331 336 337 332
4 332 337 338 333
4 333 338 339 334
4 335 340 341 336
4 336 341 342 337
4 337 342 343 338
4 338 343 344 339
4 340 345 346 341
4 341 346 347 342
4 342 347 348 343
4 343 348 349 344
4 350 355 356 351
4 351 356 357 352
4 352 357 358 353
4 353 358 359 354
4 355 360 361 356
4 356 361 362 357
4 357 362 363 358
4 358 363 364 359
4 360 365 366 361
4 361 366 367 362
4 362 367 368 363
4 363 368 369 364
4 365 370 371 366
4 366 371 372 367
4 367 372 373 368
4 368 373 374 369
4 375 380 381 376
4 376 381 382 377
4 377 382 383 378
4 378 383 384 379
4 380 385 386 381
4 381 386 387 382
4 382 387 388 383
4 383 388 389 384
4 385 390 391 386
4 386 391 392 387
4 387 392 393 388
4 388 393 394 389
4 390 395 396 391
4 391 396 397 392
4 392 397 398 393
4 393 398 399 394

CELL_TYPES 256
9
9
9
9
9
9
9
9
9
9
9
9
9
9
9
9
9
9
9
9
9
9
9
9
9
9
9
9
9
9
9
9
9
9
9
9
9
9
9
9
9
9
9
9
9
9
9
9
9
9
9
9
9
9
9
9
9
9
9
9
9
9
9
9
9
9
9
9
9
9
9
9
9
9
9
9
9
9
9
9
9
9
9
9
9
9
9
9
9
9
9
9
9
9
9
9
9
9
9
9
9
9
9
9
9
9
9
9
9
9
9
9
9
9
9
9
9
9
9
9
9
9
9
9
9
9
9
9
9
9
9
9
9
9
9
9
9
9
9
9
9
9
9
9
9
9
9
9
9
9
9
9
9
9
9
9
9
9
9
9
9
9
9
9
9
9
9
9
9
9
9
9
9
9
9
9
9
9
9
9
9
9
9
9
9
9
9
9
9
9
9
9
9
9
9
9
9
9
9
9
9
9
9
9
9
9
9
9
9
9
9
9
9
9
9
9
9
9
9
9
9
9
9
9
9
9
9
9
9
9
9
9
9
9
9
9
9
9
9
9
9
9
9
9
9
9
9
9
9
9
9
9
9
9
9
9

POINT_DATA 400
SCALARS SigmaX float
LOOKUP_TABLE default
-626.189 
-646.033 
-651.227 
-641.771 
-617.663 
-558.51 
-570.277 
-573.171 
-567.19 
-552.336 
-503.671 
-503.925 
-500.64 
-493.816 
-483.453 
-452.521 
-442.736 
-432.872 
-422.928 
-412.905 
-395.907 
-382.468 
-369.101 
-355.807 
-342.585 
-395.67 
-382.224 
-368.849 
-355.544 
-342.311 
-339.583 
-321.984 
-305.38 
-289.77 
-275.156 
-282.722 
-262.105 
-242.83 
-224.898 
-208.309 
-225.111 
-202.162 
-180.654 
-160.585 
-141.957 
-166.772 
-141.732 
-118.303 
-96.4874 
-76.2837 
-166.539 
-141.489 
-118.053 
-96.2307 
-76.0215 
-108.105 
-80.9421 
-55.5913 
-32.0525 
-10.3259 
-49.0573 
-19.9678 
7.12825 
32.2309 
55.3402 
10.4858 
41.4077 
70.1343 
96.6656 
121.002 
70.4054 
103.159 
133.456 
161.297 
186.683 
70.6462 
103.407 
133.71 
161.557 
186.946 
131.275 
165.597 
197.271 
226.297 
252.674 
192.629 
228.24 
261.043 
291.04 
318.231 
254.637 
291.119 
324.764 
355.573 
383.545 
317.226 
354.02 
388.171 
419.679 
448.544 
-628.397 
-610.095 
-590.906 
-570.83 
-549.867 
-553.833 
-538.418 
-521.058 
-501.751 
-480.499 
-481.854 
-467.265 
-450.742 
-432.283 
-411.888 
-411.684 
-396.845 
-380.521 
-362.714 
-343.423 
-342.55 
-327.365 
-310.96 
-293.335 
-274.491 
-342.275 
-327.088 
-310.683 
-293.058 
-274.215 
-274.343 
-258.44 
-241.67 
-224.033 
-205.528 
-207.668 
-190.629 
-173.18 
-155.321 
-137.053 
-141.67 
-123.38 
-105.114 
-86.8737 
-68.6579 
-75.768 
-56.4189 
-37.3764 
-18.6406 
-0.211279 
-75.5047 
-56.1512 
-37.1056 
-18.3677 
0.0623735 
-9.97302 
10.6223 
30.5383 
49.7748 
68.3318 
55.6494 
77.3607 
98.1199 
117.927 
136.782 
121.346 
144.084 
165.672 
186.109 
205.397 
187.101 
210.812 
233.225 
254.342 
274.161 
187.364 
211.079 
233.496 
254.615 
274.436 
253.053 
277.748 
301.003 
322.818 
343.193 
318.711 
344.227 
368.301 
390.931 
412.117 
384.071 
410.415 
435.318 
458.78 
480.8 
448.868 
476.209 
501.984 
526.19 
548.83 
-548.83 
-526.19 
-501.984 
-476.209 
-448.868 
-480.8 
-458.78 
-435.318 
-410.415 
-384.071 
-412.117 
-390.931 
-368.301 
-344.227 
-318.711 
-343.193 
-322.818 
-301.003 
-277.748 
-253.053 
-274.436 
-254.615 
-233.496 
-211.079 
-187.364 
-274.161 
-254.342 
-233.225 
-210.812 
-187.101 
-205.397 
-186.109 
-165.672 
-144.084 
-121.346 
-136.782 
-117.927 
-98.1199 
-77.3607 
-55.6494 
-68.3318 
-49.7748 
-30.5383 
-10.6223 
9.97302 
-0.0623735 
18.3677 
37.1056 
56.1512 
75.5047 
0.211279 
18.6406 
37.3764 
56.4189 
75.768 
68.6579 
86.8737 
105.114 
123.38 
141.67 
137.053 
155.321 
173.18 
190.629 
207.668 
205.528 
224.033 
241.67 
258.44 
274.343 
274.215 
293.058 
310.683 
327.088 
342.275 
274.491 
293.335 
310.96 
327.365 
342.55 
343.423 
362.714 
380.521 
396.845 
411.684 
411.888 
432.283 
450.742 
467.265 
481.854 
480.499 
501.751 
521.058 
538.418 
553.833 
549.867 
570.83 
590.906 
610.095 
628.397 
-448.544 
-419.679 
-388.171 
-354.02 
-317.226 
-383.545 
-355.573 
-324.764 
-291.119 
-254.637 
-318.231 
-291.04 
-261.043 
-228.24 
-192.629 
-252.674 
-226.297 
-197.271 
-165.597 
-131.275 
-186.946 
-161.557 
-133.71 
-103.407 
-70.6462 
-186.683 
-161.297 
-133.456 
-103.159 
-70.4054 
-121.002 
-96.6656 
-70.1343 
-41.4077 
-10.4858 
-55.3402 
-32.2309 
-7.12825 
19.9678 
49.0573 
10.3259 
32.0525 
55.5913 
80.9421 
108.105 
76.0215 
96.2307 
118.053 
141.489 
166.539 
76.2837 
96.4874 
118.303 
141.732 
166.772 
141.957 
160.585 
180.654 
202.162 
225.111 
208.309 
224.898 
242.83 
262.105 
282.722 
275.156 
289.77 
305.38 
321.984 
339.583 
342.311 
355.544 
368.849 
382.224 
395.67 
342.585 
355.807 
369.101 
382.468 
395.907 
412.905 
422.928 
432.872 
442.736 
452.521 
483.453 
493.816 
500.64 
503.925 
503.671 
552.336 
567.19 
573.171 
570.277 
558.51 
617.663 
641.771 
651.227 
646.033 
626.189 

SCALARS SigmaY float
LOOKUP_TABLE default
-626.189 
-558.51 
-503.671 
-452.521 
-395.907 
-646.033 
-570.277 
-503.925 
-442.736 
-382.468 
-651.227 
-573.171 
-500.64 
-432.872 
-369.101 
-641.771 
-567.19 
-493.816 
-422.928 
-355.807 
-617.663 
-552.336 
-483.453 
-412.905 
-342.585 
-628.397 
-553.833 
-481.854 
-411.684 
-342.55 
-610.095 
-538.418 
-467.265 
-396.845 
-327.365 
-590.906 
-521.058 
-450.742 
-380.521 
-310.96 
-570.83 
-501.751 
-432.283 
-362.714 
-293.335 
-549.867 
-480.499 
-411.888 
-343.423 
-274.491 
-548.83 
-480.8 
-412.117 
-343.193 
-274.436 
-526.19 
-458.78 
-390.931 
-322.818 
-254.615 
-501.984 
-435.318 
-368.301 
-301.003 
-233.496 
-476.209 
-410.415 
-344.227 
-277.748 
-211.079 
-448.868 
-384.071 
-318.711 
-253.053 
-187.364 
-448.544 
-383.545 
-318.231 
-252.674 
-186.946 
-419.679 
-355.573 
-291.04 
-226.297 
-161.557 
-388.171 
-324.764 
-261.043 
-197.271 
-133.71 
-354.02 
-291.119 
-228.24 
-165.597 
-103.407 
-317.226 
-254.637 
-192.629 
-131.275 
-70.6462 
-395.67 
-339.583 
-282.722 
-225.111 
-166.772 
-382.224 
-321.984 
-262.105 
-202.162 
-141.732 
-368.849 
-305.38 
-242.83 
-180.654 
-118.303 
-355.544 
-289.77 
-224.898 
-160.585 
-96.4874 
-342.311 
-275.156 
-208.309 
-141.957 
-76.2837 
-342.275 
-274.343 
-207.668 
-141.67 
-75.768 
-327.088 
-258.44 
-190.629 
-123.38 
-56.4189 
-310.683 
-241.67 
-173.18 
-105.114 
-37.3764 
-293.058 
-224.033 
-155.321 
-86.8737 
-18.6406 
-274.215 
-205.528 
-137.053 
-68.6579 
-0.211279 
-274.161 
-205.397 
-136.782 
-68.3318 
-0.0623735 
-254.342 
-186.109 
-117.927 
-49.7748 
18.3677 
-233.225 
-165.672 
-98.1199 
-30.5383 
37.1056 
-210.812 
-144.084 
-77.3607 
-10.6223 
56.1512 
-187.101 
-121.346 
-55.6494 
9.97302 
75.5047 
-186.683 
-121.002 
-55.3402 
10.3259 
76.0215 
-161.297 
-96.6656 
-32.2309 
32.0525 
96.2307 
-133.456 
-70.1343 
-7.12825 
55.5913 
118.053 
-103.159 
-41.4077 
19.9678 
80.9421 
141.489 
-70.4054 
-10.4858 
49.0573 
108.105 
166.539 
-166.539 
-108.105 
-49.0573 
10.4858 
70.4054 
-141.489 
-80.9421 
-19.9678 
41.4077 
103.159 
-118.053 
-55.5913 
7.12825 
70.1343 
133.456 
-96.2307 
-32.0525 
32.2309 
96.6656 
161.297 
-76.0215 
-10.3259 
55.3402 
121.002 
186.683 
-75.5047 
-9.97302 
55.6494 
121.346 
187.101 
-56.1512 
10.6223 
77.3607 
144.084 
210.812 
-37.1056 
30.5383 
98.1199 
165.672 
233.225 
-18.3677 
49.7748 
117.927 
186.109 
254.342 
0.0623735 
68.3318 
136.782 
205.397 
274.161 
0.211279 
68.6579 
137.053 
205.528 
274.215 
18.6406 
86.8737 
155.321 
224.033 
293.058 
37.3764 
105.114 
173.18 
241.67 
310.683 
56.4189 
123.38 
190.629 
258.44 
327.088 
75.768 
141.67 
207.668 
274.343 
342.275 
76.2837 
141.957 
208.309 
275.156 
342.311 
96.4874 
160.585 
224.898 
289.77 
355.544 
118.303 
180.654 
242.83 
305.38 
368.849 
141.732 
202.162 
262.105 
321.984 
382.224 
166.772 
225.111 
282.722 
339.583 
395.67 
70.6462 
131.275 
192.629 
254.637 
317.226 
103.407 
165.597 
228.24 
291.119 
354.02 
133.71 
197.271 
261.043 
324.764 
388.171 
161.557 
226.297 
291.04 
355.573 
419.679 
186.946 
252.674 
318.231 
383.545 
448.544 
187.364 
253.053 
318.711 
384.071 
448.868 
211.079 
277.748 
344.227 
410.415 
476.209 
233.496 
301.003 
368.301 
435.318 
501.984 
254.615 
322.818 
390.931 
458.78 
526.19 
274.436 
343.193 
412.117 
480.8 
548.83 
274.491 
343.423 
411.888 
480.499 
549.867 
293.335 
362.714 
432.283 
501.751 
570.83 
310.96 
380.521 
450.742 
521.058 
590.906 
327.365 
396.845 
467.265 
538.418 
610.095 
342.55 
411.684 
481.854 
553.833 
628.397 
342.585 
412.905 
483.453 
552.336 
617.663 
355.807 
422.928 
493.816 
567.19 
641.771 
369.101 
432.872 
500.64 
573.171 
651.227 
382.468 
442.736 
503.925 
570.277 
646.033 
395.907 
452.521 
503.671 
558.51 
626.189 

SCALARS TauXY float
LOOKUP_TABLE default
-14.6054 
-26.4329 
-37.0817 
-43.792 
-43.8041 
-26.4329 
-23.8133 
-26.1806 
-30.6374 
-34.2864 
-37.0817 
-26.1806 
-22.2378 
-22.9352 
-25.9547 
-43.792 
-30.6374 
-22.9352 
-19.6632 
-19.7992 
-43.8041 
-34.2864 
-25.9547 
-19.7992 
-16.8102 
-43.6901 
-32.4707 
-24.6335 
-19.5183 
-16.4649 
-46.3153 
-34.3282 
-25.344 
-19.0719 
-15.2209 
-46.5851 
-34.8741 
-25.5949 
-18.6633 
-13.995 
-45.4008 
-34.318 
-25.2183 
-18.0612 
-12.8065 
-43.6636 
-32.8698 
-24.0464 
-17.0343 
-11.6744 
-44.0481 
-32.9755 
-23.9561 
-16.8801 
-11.6372 
-41.169 
-30.7105 
-22.0573 
-15.1177 
-9.79965 
-37.6316 
-27.6355 
-19.3183 
-12.5871 
-7.34942 
-33.3188 
-23.7307 
-15.7496 
-9.26314 
-4.15882 
-28.1136 
-18.976 
-11.362 
-5.1205 
-0.100093 
-28.0846 
-18.9769 
-11.3192 
-5.02309 
5.64406e-10 
-21.9211 
-13.3768 
-6.10152 
4.76039e-11 
5.02309 
-15.0737 
-7.04014 
1.23973e-10 
6.10152 
11.3192 
-7.71062 
3.55336e-11 
7.04014 
13.3768 
18.9769 
6.36382e-10 
7.71062 
15.0737 
21.9211 
28.0846 
-43.6901 
-46.3153 
-46.5851 
-45.4008 
-43.6636 
-32.4707 
-34.3282 
-34.8741 
-34.318 
-32.8698 
-24.6335 
-25.344 
-25.5949 
-25.2183 
-24.0464 
-19.5183 
-19.0719 
-18.6633 
-18.0612 
-17.0343 
-16.4649 
-15.2209 
-13.995 
-12.8065 
-11.6744 
-16.1147 
-14.9057 
-13.8103 
-12.701 
-11.4499 
-14.9057 
-12.45 
-10.5607 
-9.02462 
-7.6287 
-13.8103 
-10.5607 
-8.08831 
-6.15941 
-4.54015 
-12.701 
-9.02462 
-6.15941 
-3.91549 
-2.10303 
-11.4499 
-7.6287 
-4.54015 
-2.10303 
-0.236197 
-11.4123 
-7.4325 
-4.34692 
-1.94096 
2.98995e-10 
-9.6621 
-5.64248 
-2.4748 
-1.98494e-11 
1.94096 
-7.22001 
-3.19307 
1.32568e-10 
2.4748 
4.34692 
-4.02099 
3.08287e-11 
3.19307 
5.64248 
7.4325 
1.03812e-09 
4.02099 
7.22001 
9.6621 
11.4123 
0.100093 
4.15882 
7.34942 
9.79965 
11.6372 
5.1205 
9.26314 
12.5871 
15.1177 
16.8801 
11.362 
15.7496 
19.3183 
22.0573 
23.9561 
18.976 
23.7307 
27.6355 
30.7105 
32.9755 
28.1136 
33.3188 
37.6316 
41.169 
44.0481 
-44.0481 
-41.169 
-37.6316 
-33.3188 
-28.1136 
-32.9755 
-30.7105 
-27.6355 
-23.7307 
-18.976 
-23.9561 
-22.0573 
-19.3183 
-15.7496 
-11.362 
-16.8801 
-15.1177 
-12.5871 
-9.26314 
-5.1205 
-11.6372 
-9.79965 
-7.34942 
-4.15882 
-0.100093 
-11.4123 
-9.6621 
-7.22001 
-4.02099 
8.27768e-10 
-7.4325 
-5.64248 
-3.19307 
-1.38697e-10 
4.02099 
-4.34692 
-2.4748 
2.72022e-11 
3.19307 
7.22001 
-1.94096 
1.06633e-10 
2.4748 
5.64248 
9.6621 
-8.71677e-11 
1.94096 
4.34692 
7.4325 
11.4123 
0.236197 
2.10303 
4.54015 
7.6287 
11.4499 
2.10303 
3.91549 
6.15941 
9.02462 
12.701 
4.54015 
6.15941 
8.08831 
10.5607 
13.8103 
7.6287 
9.02462 
10.5607 
12.45 
14.9057 
11.4499 
12.701 
13.8103 
14.9057 
16.1147 
11.6744 
12.8065 
13.995 
15.2209 
16.4649 
17.0343 
18.0612 
18.6633 
19.0719 
19.5183 
24.0464 
25.2183 
25.5949 
25.344 
24.6335 
32.8698 
34.318 
34.8741 
34.3282 
32.4707 
43.6636 
45.4008 
46.5851 
46.3153 
43.6901 
-28.0846 
-21.9211 
-15.0737 
-7.71062 
-4.54648e-10 
-18.9769 
-13.3768 
-7.04014 
1.23952e-10 
7.71062 
-11.3192 
-6.10152 
1.52135e-11 
7.04014 
15.0737 
-5.02309 
5.07125e-11 
6.10152 
13.3768 
21.9211 
-1.82683e-10 
5.02309 
11.3192 
18.9769 
28.0846 
0.100093 
5.1205 
11.362 
18.976 
28.1136 
4.15882 
9.26314 
15.7496 
23.7307 
33.3188 
7.34942 
12.5871 
19.3183 
27.6355 
37.6316 
9.79965 
15.1177 
22.0573 
30.7105 
41.169 
11.6372 
16.8801 
23.9561 
32.9755 
44.0481 
11.6744 
17.0343 
24.0464 
32.8698 
43.6636 
12.8065 
18.0612 
25.2183 
34.318 
45.4008 
13.995 
18.6633 
25.5949 
34.8741 
46.5851 
15.2209 
19.0719 
25.344 
34.3282 
46.3153 
16.4649 
19.5183 
24.6335 
32.4707 
43.6901 
16.8102 
19.7992 
25.9547 
34.2864 
43.8041 
19.7992 
19.6632 
22.9352 
30.6374 
43.792 
25.9547 
22.9352 
22.2378 
26.1806 
37.0817 
34.2864 
30.6374 
26.1806 
23.8133 
26.4329 
43.8041 
43.792 
37.0817 
26.4329 
14.6054 

VECTORS Flux float
-626.189 -14.6054 -14.6054 
-646.033 -28.6196 -24.2461 
-651.227 -38.3143 -35.8491 
-641.771 -43.6894 -43.8946 
-617.663 -44.745 -42.8631 
-558.51 -24.2461 -28.6196 
-570.277 -23.8133 -23.8133 
-573.171 -25.6379 -26.7234 
-567.19 -29.7197 -31.5551 
-552.336 -36.0588 -32.514 
-503.671 -35.8491 -38.3143 
-503.925 -26.7234 -25.6379 
-500.64 -22.2378 -22.2378 
-493.816 -22.3925 -23.478 
-483.453 -27.1873 -24.7221 
-452.521 -43.8946 -43.6894 
-442.736 -31.5551 -29.7197 
-432.872 -23.478 -22.3925 
-422.928 -19.6632 -19.6632 
-412.905 -20.1109 -19.4875 
-395.907 -42.8631 -44.745 
-382.468 -32.514 -36.0588 
-369.101 -24.7221 -27.1873 
-355.807 -19.4875 -20.1109 
-342.585 -16.8102 -16.8102 
-395.67 -42.8599 -44.5204 
-382.224 -32.5138 -32.4276 
-368.849 -24.7227 -24.5443 
-355.544 -19.4867 -19.5499 
-342.311 -16.8058 -16.124 
-339.583 -46.3717 -46.2589 
-321.984 -34.4454 -34.211 
-305.38 -25.3048 -25.3833 
-289.77 -18.9496 -19.1941 
-275.156 -15.38 -15.0618 
-282.722 -46.5403 -46.6298 
-262.105 -34.8938 -34.8544 
-242.83 -25.5949 -25.5949 
-224.898 -18.6436 -18.683 
-208.309 -14.0398 -13.9503 
-225.111 -45.1683 -45.6332 
-202.162 -34.2784 -34.3577 
-180.654 -25.2576 -25.179 
-160.585 -18.1059 -18.0165 
-141.957 -12.8234 -12.7896 
-166.772 -44.0582 -43.2689 
-141.732 -33.0185 -32.721 
-118.303 -23.9571 -24.1356 
-96.4874 -16.874 -17.1946 
-76.2837 -11.7692 -11.5796 
-166.539 -44.0519 -44.0444 
-141.489 -33.0118 -32.9391 
-118.053 -23.9504 -23.9618 
-96.2307 -16.8677 -16.8924 
-76.0215 -11.7637 -11.5108 
-108.105 -41.0928 -41.2452 
-80.9421 -30.7274 -30.6937 
-55.5913 -22.0598 -22.0548 
-32.0525 -15.0903 -15.1451 
-10.3259 -9.81856 -9.78073 
-49.0573 -37.5823 -37.6808 
-19.9678 -27.6572 -27.6139 
7.12825 -19.3183 -19.3183 
32.2309 -12.5654 -12.6088 
55.3402 -7.39868 -7.30017 
10.4858 -33.2864 -33.3512 
41.4077 -23.7617 -23.6997 
70.1343 -15.7471 -15.7521 
96.6656 -9.24272 -9.28355 
121.002 -4.24853 -4.06911 
70.4054 -27.9709 -28.2563 
103.159 -19.0008 -18.9511 
133.456 -11.3677 -11.3563 
161.297 -5.07165 -5.16935 
186.683 -0.112617 -0.087569 
70.6462 -27.9481 -28.2211 
103.407 -18.9801 -18.9737 
133.71 -11.3484 -11.2901 
161.557 -5.05306 -4.99312 
186.946 -0.0940876 0.0940876 
131.275 -21.9098 -21.9324 
165.597 -13.4068 -13.3467 
197.271 -6.08868 -6.11435 
226.297 0.044636 -0.044636 
252.674 4.99312 5.05306 
192.629 -15.0446 -15.1029 
228.24 -7.05298 -7.02731 
261.043 1.26264e-10 1.21681e-10 
291.04 6.11435 6.08868 
318.231 11.2901 11.3484 
254.637 -7.6888 -7.73245 
291.119 0.0154623 -0.0154623 
324.764 7.02731 7.05298 
355.573 13.3467 13.4068 
383.545 18.9737 18.9801 
317.226 -0.178885 0.178885 
354.02 7.73245 7.6888 
388.171 15.1029 15.0446 
419.679 21.9324 21.9098 
448.544 28.2211 27.9481 
-628.397 -44.5204 -42.8599 
-610.095 -46.2589 -46.3717 
-590.906 -46.6298 -46.5403 
-570.83 -45.6332 -45.1683 
-549.867 -43.2689 -44.0582 
-553.833 -32.4276 -32.5138 
-538.418 -34.211 -34.4454 
-521.058 -34.8544 -34.8938 
-501.751 -34.3577 -34.2784 
-480.499 -32.721 -33.0185 
-481.854 -24.5443 -24.7227 
-467.265 -25.3833 -25.3048 
-450.742 -25.5949 -25.5949 
-432.283 -25.179 -25.2576 
-411.888 -24.1356 -23.9571 
-411.684 -19.5499 -19.4867 
-396.845 -19.1941 -18.9496 
-380.521 -18.683 -18.6436 
-362.714 -18.0165 -18.1059 
-343.423 -17.1946 -16.874 
-342.55 -16.124 -16.8058 
-327.365 -15.0618 -15.38 
-310.96 -13.9503 -14.0398 
-293.335 -12.7896 -12.8234 
-274.491 -11.5796 -11.7692 
-342.275 -16.1147 -16.1147 
-327.088 -15.0489 -14.7625 
-310.683 -13.9347 -13.686 
-293.058 -12.772 -12.6299 
-274.215 -11.5609 -11.3388 
-274.343 -14.7625 -15.0489 
-258.44 -12.45 -12.45 
-241.67 -10.5059 -10.6154 
-224.033 -8.93028 -9.11897 
-205.528 -7.72302 -7.53438 
-207.668 -13.686 -13.9347 
-190.629 -10.6154 -10.5059 
-173.18 -8.08831 -8.08831 
-155.321 -6.10466 -6.21415 
-137.053 -4.66448 -4.41582 
-141.67 -12.6299 -12.772 
-123.38 -9.11897 -8.93028 
-105.114 -6.21415 -6.10466 
-86.8737 -3.91549 -3.91549 
-68.6579 -2.22298 -1.98309 
-75.768 -11.3388 -11.5609 
-56.4189 -7.53438 -7.72302 
-37.3764 -4.41582 -4.66448 
-18.6406 -1.98309 -2.22298 
-0.211279 -0.236197 -0.236197 
-75.5047 -11.3328 -11.4919 
-56.1512 -7.52756 -7.33744 
-37.1056 -4.40839 -4.28545 
-18.3677 -1.97528 -1.90664 
0.0623735 -0.22825 0.22825 
-9.97302 -9.5623 -9.76191 
10.6223 -5.65999 -5.62497 
30.5383 -2.44773 -2.50186 
49.7748 0.0744786 -0.0744786 
68.3318 1.90664 1.97528 
55.6494 -7.15854 -7.28148 
77.3607 -3.22014 -3.16601 
98.1199 1.30039e-10 1.35098e-10 
117.927 2.50186 2.44773 
136.782 4.28545 4.40839 
121.346 -3.99142 -4.05057 
144.084 -0.0394592 0.0394592 
165.672 3.16601 3.22014 
186.109 5.62497 5.65999 
205.397 7.33744 7.52756 
187.101 0.0691887 -0.0691887 
210.812 4.05057 3.99142 
233.225 7.28148 7.15854 
254.342 9.76191 9.5623 
274.161 11.4919 11.3328 
187.364 0.087569 0.112617 
211.079 4.06911 4.24853 
233.496 7.30017 7.39868 
254.615 9.78073 9.81856 
274.436 11.5108 11.7637 
253.053 5.16935 5.07165 
277.748 9.28355 9.24272 
301.003 12.6088 12.5654 
322.818 15.1451 15.0903 
343.193 16.8924 16.8677 
318.711 11.3563 11.3677 
344.227 15.7521 15.7471 
368.301 19.3183 19.3183 
390.931 22.0548 22.0598 
412.117 23.9618 23.9504 
384.071 18.9511 19.0008 
410.415 23.6997 23.7617 
435.318 27.6139 27.6572 
458.78 30.6937 30.7274 
480.8 32.9391 33.0118 
448.868 28.2563 27.9709 
476.209 33.3512 33.2864 
501.984 37.6808 37.5823 
526.19 41.2452 41.0928 
548.83 44.0444 44.0519 
-548.83 -44.0444 -44.0519 
-526.19 -41.2452 -41.0928 
-501.984 -37.6808 -37.5823 
-476.209 -33.3512 -33.2864 
-448.868 -28.2563 -27.9709 
-480.8 -32.9391 -33.0118 
-458.78 -30.6937 -30.7274 
-435.318 -27.6139 -27.6572 
-410.415 -23.6997 -23.7617 
-384.071 -18.9511 -19.0008 
-412.117 -23.9618 -23.9504 
-390.931 -22.0548 -22.0598 
-368.301 -19.3183 -19.3183 
-344.227 -15.7521 -15.7471 
-318.711 -11.3563 -11.3677 
-343.193 -16.8924 -16.8677 
-322.818 -15.1451 -15.0903 
-301.003 -12.6088 -12.5654 
-277.748 -9.28355 -9.24272 
-253.053 -5.16935 -5.07165 
-274.436 -11.5108 -11.7637 
-254.615 -9.78073 -9.81856 
-233.496 -7.30017 -7.39868 
-211.079 -4.06911 -4.24853 
-187.364 -0.087569 -0.112617 
-274.161 -11.4919 -11.3328 
-254.342 -9.76191 -9.5623 
-233.225 -7.28148 -7.15854 
-210.812 -4.05057 -3.99142 
-187.101 -0.0691887 0.0691887 
-205.397 -7.33744 -7.52756 
-186.109 -5.62497 -5.65999 
-165.672 -3.16601 -3.22014 
-144.084 0.0394592 -0.0394592 
-121.346 3.99142 4.05057 
-136.782 -4.28545 -4.40839 
-117.927 -2.50186 -2.44773 
-98.1199 2.36985e-11 3.07059e-11 
-77.3607 3.22014 3.16601 
-55.6494 7.15854 7.28148 
-68.3318 -1.90664 -1.97528 
-49.7748 -0.0744786 0.0744786 
-30.5383 2.44773 2.50186 
-10.6223 5.65999 5.62497 
9.97302 9.5623 9.76191 
-0.0623735 0.22825 -0.22825 
18.3677 1.97528 1.90664 
37.1056 4.40839 4.28545 
56.1512 7.52756 7.33744 
75.5047 11.3328 11.4919 
0.211279 0.236197 0.236197 
18.6406 1.98309 2.22298 
37.3764 4.41582 4.66448 
56.4189 7.53438 7.72302 
75.768 11.3388 11.5609 
68.6579 2.22298 1.98309 
86.8737 3.91549 3.91549 
105.114 6.21415 6.10466 
123.38 9.11897 8.93028 
141.67 12.6299 12.772 
137.053 4.66448 4.41582 
155.321 6.10466 6.21415 
173.18 8.08831 8.08831 
190.629 10.6154 10.5059 
207.668 13.686 13.9347 
205.528 7.72302 7.53438 
224.033 8.93028 9.11897 
241.67 10.5059 10.6154 
258.44 12.45 12.45 
274.343 14.7625 15.0489 
274.215 11.5609 11.3388 
293.058 12.772 12.6299 
310.683 13.9347 13.686 
327.088 15.0489 14.7625 
342.275 16.1147 16.1147 
274.491 11.5796 11.7692 
293.335 12.7896 12.8234 
310.96 13.9503 14.0398 
327.365 15.0618 15.38 
342.55 16.124 16.8058 
343.423 17.1946 16.874 
362.714 18.0165 18.1059 
380.521 18.683 18.6436 
396.845 19.1941 18.9496 
411.684 19.5499 19.4867 
411.888 24.1356 23.9571 
432.283 25.179 25.2576 
450.742 25.5949 25.5949 
467.265 25.3833 25.3048 
481.854 24.5443 24.7227 
480.499 32.721 33.0185 
501.751 34.3577 34.2784 
521.058 34.8544 34.8938 
538.418 34.211 34.4454 
553.833 32.4276 32.5138 
549.867 43.2689 44.0582 
570.83 45.6332 45.1683 
590.906 46.6298 46.5403 
610.095 46.2589 46.3717 
628.397 44.5204 42.8599 
-448.544 -28.2211 -27.9481 
-419.679 -21.9324 -21.9098 
-388.171 -15.1029 -15.0446 
-354.02 -7.73245 -7.6888 
-317.226 0.178885 -0.178885 
-383.545 -18.9737 -18.9801 
-355.573 -13.3467 -13.4068 
-324.764 -7.02731 -7.05298 
-291.119 -0.0154623 0.0154623 
-254.637 7.6888 7.73245 
-318.231 -11.2901 -11.3484 
-291.04 -6.11435 -6.08868 
-261.043 8.7202e-12 2.17069e-11 
-228.24 7.05298 7.02731 
-192.629 15.0446 15.1029 
-252.674 -4.99312 -5.05306 
-226.297 -0.044636 0.044636 
-197.271 6.08868 6.11435 
-165.597 13.4068 13.3467 
-131.275 21.9098 21.9324 
-186.946 0.0940876 -0.0940876 
-161.557 5.05306 4.99312 
-133.71 11.3484 11.2901 
-103.407 18.9801 18.9737 
-70.6462 27.9481 28.2211 
-186.683 0.112617 0.087569 
-161.297 5.07165 5.16935 
-133.456 11.3677 11.3563 
-103.159 19.0008 18.9511 
-70.4054 27.9709 28.2563 
-121.002 4.24853 4.06911 
-96.6656 9.24272 9.28355 
-70.1343 15.7471 15.7521 
-41.4077 23.7617 23.6997 
-10.4858 33.2864 33.3512 
-55.3402 7.39868 7.30017 
-32.2309 12.5654 12.6088 
-7.12825 19.3183 19.3183 
19.9678 27.6572 27.6139 
49.0573 37.5823 37.6808 
10.3259 9.81856 9.78073 
32.0525 15.0903 15.1451 
55.5913 22.0598 22.0548 
80.9421 30.7274 30.6937 
108.105 41.0928 41.2452 
76.0215 11.7637 11.5108 
96.2307 16.8677 16.8924 
118.053 23.9504 23.9618 
141.489 33.0118 32.9391 
166.539 44.0519 44.0444 
76.2837 11.7692 11.5796 
96.4874 16.874 17.1946 
118.303 23.9571 24.1356 
141.732 33.0185 32.721 
166.772 44.0582 43.2689 
141.957 12.8234 12.7896 
160.585 18.1059 18.0165 
180.654 25.2576 25.179 
202.162 34.2784 34.3577 
225.111 45.1683 45.6332 
208.309 14.0398 13.9503 
224.898 18.6436 18.683 
242.83 25.5949 25.5949 
262.105 34.8938 34.8544 
282.722 46.5403 46.6298 
275.156 15.38 15.0618 
289.77 18.9496 19.1941 
305.38 25.3048 25.3833 
321.984 34.4454 34.211 
339.583 46.3717 46.2589 
342.311 16.8058 16.124 
355.544 19.4867 19.5499 
368.849 24.7227 24.5443 
382.224 32.5138 32.4276 
395.67 42.8599 44.5204 
342.585 16.8102 16.8102 
355.807 19.4875 20.1109 
369.101 24.7221 27.1873 
382.468 32.514 36.0588 
395.907 42.8631 44.745 
412.905 20.1109 19.4875 
422.928 19.6632 19.6632 
432.872 23.478 22.3925 
442.736 31.5551 29.7197 
452.521 43.8946 43.6894 
483.453 27.1873 24.7221 
493.816 22.3925 23.478 
500.64 22.2378 22.2378 
503.925 26.7234 25.6379 
503.671 35.8491 38.3143 
552.336 36.0588 32.514 
567.19 29.7197 31.5551 
573.171 25.6379 26.7234 
570.277 23.8133 23.8133 
558.51 24.2461 28.6196 
617.663 44.745 42.8631 
641.771 43.6894 43.8946 
651.227 38.3143 35.8491 
646.033 28.6196 24.2461 
626.189 14.6054 14.6054 

VECTORS displacement float
0.995946 0.995946 0 
0.996546 0.760459 0 
0.997454 0.55751 0 
0.998668 0.387099 0 
1.00019 0.249225 0 
0.760459 0.996546 0 
0.738027 0.738027 0 
0.723425 0.517918 0 
0.716652 0.336217 0 
0.717709 0.192926 0 
0.55751 0.997454 0 
0.517918 0.723425 0 
0.49088 0.49088 0 
0.476397 0.299819 0 
0.474469 0.150241 0 
0.387099 0.998668 0 
0.336217 0.716652 0 
0.299819 0.476397 0 
0.277903 0.277903 0 
0.270471 0.12117 0 
0.249225 1.00019 0 
0.192926 0.717709 0 
0.150241 0.474469 0 
0.12117 0.270471 0 
0.105714 0.105714 0 
0.246999 0.998758 0 
0.190111 0.714257 0 
0.147541 0.470282 0 
0.119288 0.266833 0 
0.105352 0.103911 0 
0.138466 0.999261 0 
0.078098 0.713443 0 
0.0316985 0.467393 0 
-0.000732249 0.26111 0 
-0.0191943 0.0945956 0 
0.0608917 0.999541 0 
-0.00107703 0.713574 0 
-0.0496599 0.466578 0 
-0.084857 0.258556 0 
-0.106668 0.0895055 0 
0.0142748 0.999599 0 
-0.0474143 0.714649 0 
-0.0965347 0.467839 0 
-0.133087 0.25917 0 
-0.15707 0.0886402 0 
-0.00138432 0.999434 0 
-0.0609136 0.716669 0 
-0.108926 0.471175 0 
-0.145421 0.262952 0 
-0.170399 0.0919998 0 
-0.00124005 0.999672 0 
-0.0610316 0.716646 0 
-0.109219 0.470977 0 
-0.145802 0.262664 0 
-0.170781 0.0917083 0 
0.0144939 0.99968 0 
-0.0419439 0.719215 0 
-0.0878558 0.475298 0 
-0.123242 0.267931 0 
-0.148102 0.0971119 0 
0.0614312 0.999702 0 
0.00964206 0.722597 0 
-0.0328203 0.481246 0 
-0.0659559 0.275649 0 
-0.0897647 0.105806 0 
0.139572 0.999739 0 
0.0937263 0.726794 0 
0.0558875 0.488821 0 
0.0260553 0.28582 0 
0.00422962 0.117791 0 
0.248916 0.999789 0 
0.210309 0.731804 0 
0.178268 0.498022 0 
0.152792 0.298443 0 
0.133881 0.133067 0 
0.249372 0.999751 0 
0.210644 0.732069 0 
0.178512 0.498555 0 
0.152974 0.299209 0 
0.134031 0.134031 0 
0.390101 0.999793 0 
0.359962 0.737925 0 
0.334767 0.509499 0 
0.314516 0.314516 0 
0.299209 0.152974 0 
0.562042 0.999774 0 
0.541243 0.745398 0 
0.523729 0.523729 0 
0.509499 0.334767 0 
0.498555 0.178512 0 
0.765195 0.999697 0 
0.754488 0.754488 0 
0.745398 0.541243 0 
0.737925 0.359962 0 
0.732069 0.210644 0 
0.99956 0.99956 0 
0.999697 0.765195 0 
0.999774 0.562042 0 
0.999793 0.390101 0 
0.999751 0.249372 0 
0.998758 0.246999 0 
0.999261 0.138466 0 
0.999541 0.0608917 0 
0.999599 0.0142748 0 
0.999434 -0.00138432 0 
0.714257 0.190111 0 
0.713443 0.078098 0 
0.713574 -0.00107703 0 
0.714649 -0.0474143 0 
0.716669 -0.0609136 0 
0.470282 0.147541 0 
0.467393 0.0316985 0 
0.466578 -0.0496599 0 
0.467839 -0.0965347 0 
0.471175 -0.108926 0 
0.266833 0.119288 0 
0.26111 -0.000732249 0 
0.258556 -0.084857 0 
0.25917 -0.133087 0 
0.262952 -0.145421 0 
0.103911 0.105352 0 
0.0945956 -0.0191943 0 
0.0895055 -0.106668 0 
0.0886402 -0.15707 0 
0.0919998 -0.170399 0 
0.102452 0.102452 0 
0.0935546 -0.0216535 0 
0.0887705 -0.108775 0 
0.0880993 -0.158913 0 
0.0915412 -0.172068 0 
-0.0216535 0.0935546 0 
-0.033828 -0.033828 0 
-0.0411292 -0.123579 0 
-0.0435571 -0.175698 0 
-0.0411117 -0.190185 0 
-0.108775 0.0887705 0 
-0.123579 -0.0411292 0 
-0.133036 -0.133036 0 
-0.137147 -0.18695 0 
-0.135912 -0.202872 0 
-0.158913 0.0880993 0 
-0.175698 -0.0435571 0 
-0.18695 -0.137147 0 
-0.192671 -0.192671 0 
-0.19286 -0.210129 0 
-0.172068 0.0915412 0 
-0.190185 -0.0411117 0 
-0.202872 -0.135912 0 
-0.210129 -0.19286 0 
-0.211956 -0.211956 0 
-0.172439 0.0912805 0 
-0.190526 -0.0413838 0 
-0.203134 -0.136137 0 
-0.210262 -0.192979 0 
-0.21191 -0.21191 0 
-0.149581 0.0968033 0 
-0.168148 -0.0363143 0 
-0.18157 -0.131864 0 
-0.189847 -0.189847 0 
-0.192979 -0.210262 0 
-0.0910733 0.105579 0 
-0.109332 -0.0272133 0 
-0.122929 -0.122929 0 
-0.131864 -0.18157 0 
-0.136137 -0.203134 0 
0.00308304 0.117607 0 
-0.0140808 -0.0140808 0 
-0.0272133 -0.109332 0 
-0.0363143 -0.168148 0 
-0.0413838 -0.190526 0 
0.132888 0.132888 0 
0.117607 0.00308304 0 
0.105579 -0.0910733 0 
0.0968033 -0.149581 0 
0.0912805 -0.172439 0 
0.133067 0.133881 0 
0.117791 0.00422962 0 
0.105806 -0.0897647 0 
0.0971119 -0.148102 0 
0.0917083 -0.170781 0 
0.298443 0.152792 0 
0.28582 0.0260553 0 
0.275649 -0.0659559 0 
0.267931 -0.123242 0 
0.262664 -0.145802 0 
0.498022 0.178268 0 
0.488821 0.0558875 0 
0.481246 -0.0328203 0 
0.475298 -0.0878558 0 
0.470977 -0.109219 0 
0.731804 0.210309 0 
0.726794 0.0937263 0 
0.722597 0.00964206 0 
0.719215 -0.0419439 0 
0.716646 -0.0610316 0 
0.999789 0.248916 0 
0.999739 0.139572 0 
0.999702 0.0614312 0 
0.99968 0.0144939 0 
0.999672 -0.00124005 0 
0.999672 -0.00124005 0 
0.99968 0.0144939 0 
0.999702 0.0614312 0 
0.999739 0.139572 0 
0.999789 0.248916 0 
0.716646 -0.0610316 0 
0.719215 -0.0419439 0 
0.722597 0.00964206 0 
0.726794 0.0937263 0 
0.731804 0.210309 0 
0.470977 -0.109219 0 
0.475298 -0.0878558 0 
0.481246 -0.0328203 0 
0.488821 0.0558875 0 
0.498022 0.178268 0 
0.262664 -0.145802 0 
0.267931 -0.123242 0 
0.275649 -0.0659559 0 
0.28582 0.0260553 0 
0.298443 0.152792 0 
0.0917083 -0.170781 0 
0.0971119 -0.148102 0 
0.105806 -0.0897647 0 
0.117791 0.00422962 0 
0.133067 0.133881 0 
0.0912805 -0.172439 0 
0.0968033 -0.149581 0 
0.105579 -0.0910733 0 
0.117607 0.00308304 0 
0.132888 0.132888 0 
-0.0413838 -0.190526 0 
-0.0363143 -0.168148 0 
-0.0272133 -0.109332 0 
-0.0140808 -0.0140808 0 
0.00308304 0.117607 0 
-0.136137 -0.203134 0 
-0.131864 -0.18157 0 
-0.122929 -0.122929 0 
-0.109332 -0.0272133 0 
-0.0910733 0.105579 0 
-0.192979 -0.210262 0 
-0.189847 -0.189847 0 
-0.18157 -0.131864 0 
-0.168148 -0.0363143 0 
-0.149581 0.0968033 0 
-0.21191 -0.21191 0 
-0.210262 -0.192979 0 
-0.203134 -0.136137 0 
-0.190526 -0.0413838 0 
-0.172439 0.0912805 0 
-0.211956 -0.211956 0 
-0.210129 -0.19286 0 
-0.202872 -0.135912 0 
-0.190185 -0.0411117 0 
-0.172068 0.0915412 0 
-0.19286 -0.210129 0 
-0.192671 -0.192671 0 
-0.18695 -0.137147 0 
-0.175698 -0.0435571 0 
-0.158913 0.0880993 0 
-0.135912 -0.202872 0 
-0.137147 -0.18695 0 
-0.133036 -0.133036 0 
-0.123579 -0.0411292 0 
-0.108775 0.0887705 0 
-0.0411117 -0.190185 0 
-0.0435571 -0.175698 0 
-0.0411292 -0.123579 0 
-0.033828 -0.033828 0 
-0.0216535 0.0935546 0 
0.0915412 -0.172068 0 
0.0880993 -0.158913 0 
0.0887705 -0.108775 0 
0.0935546 -0.0216535 0 
0.102452 0.102452 0 
0.0919998 -0.170399 0 
0.0886402 -0.15707 0 
0.0895055 -0.106668 0 
0.0945956 -0.0191943 0 
0.103911 0.105352 0 
0.262952 -0.145421 0 
0.25917 -0.133087 0 
0.258556 -0.084857 0 
0.26111 -0.000732249 0 
0.266833 0.119288 0 
0.471175 -0.108926 0 
0.467839 -0.0965347 0 
0.466578 -0.0496599 0 
0.467393 0.0316985 0 
0.470282 0.147541 0 
0.716669 -0.0609136 0 
0.714649 -0.0474143 0 
0.713574 -0.00107703 0 
0.713443 0.078098 0 
0.714257 0.190111 0 
0.999434 -0.00138432 0 
0.999599 0.0142748 0 
0.999541 0.0608917 0 
0.999261 0.138466 0 
0.998758 0.246999 0 
0.999751 0.249372 0 
0.999793 0.390101 0 
0.999774 0.562042 0 
0.999697 0.765195 0 
0.99956 0.99956 0 
0.732069 0.210644 0 
0.737925 0.359962 0 
0.745398 0.541243 0 
0.754488 0.754488 0 
0.765195 0.999697 0 
0.498555 0.178512 0 
0.509499 0.334767 0 
0.523729 0.523729 0 
0.541243 0.745398 0 
0.562042 0.999774 0 
0.299209 0.152974 0 
0.314516 0.314516 0 
0.334767 0.509499 0 
0.359962 0.737925 0 
0.390101 0.999793 0 
0.134031 0.134031 0 
0.152974 0.299209 0 
0.178512 0.498555 0 
0.210644 0.732069 0 
0.249372 0.999751 0 
0.133881 0.133067 0 
0.152792 0.298443 0 
0.178268 0.498022 0 
0.210309 0.731804 0 
0.248916 0.999789 0 
0.00422962 0.117791 0 
0.0260553 0.28582 0 
0.0558875 0.488821 0 
0.0937263 0.726794 0 
0.139572 0.999739 0 
-0.0897647 0.105806 0 
-0.0659559 0.275649 0 
-0.0328203 0.481246 0 
0.00964206 0.722597 0 
0.0614312 0.999702 0 
-0.148102 0.0971119 0 
-0.123242 0.267931 0 
-0.0878558 0.475298 0 
-0.0419439 0.719215 0 
0.0144939 0.99968 0 
-0.170781 0.0917083 0 
-0.145802 0.262664 0 
-0.109219 0.470977 0 
-0.0610316 0.716646 0 
-0.00124005 0.999672 0 
-0.170399 0.0919998 0 
-0.145421 0.262952 0 
-0.108926 0.471175 0 
-0.0609136 0.716669 0 
-0.00138432 0.999434 0 
-0.15707 0.0886402 0 
-0.133087 0.25917 0 
-0.0965347 0.467839 0 
-0.0474143 0.714649 0 
0.0142748 0.999599 0 
-0.106668 0.0895055 0 
-0.084857 0.258556 0 
-0.0496599 0.466578 0 
-0.00107703 0.713574 0 
0.0608917 0.999541 0 
-0.0191943 0.0945956 0 
-0.000732249 0.26111 0 
0.0316985 0.467393 0 
0.078098 0.713443 0 
0.138466 0.999261 0 
0.105352 0.103911 0 
0.119288 0.266833 0 
0.147541 0.470282 0 
0.190111 0.714257 0 
0.246999 0.998758 0 
0.105714 0.105714 0 
0.12117 0.270471 0 
0.150241 0.474469 0 
0.192926 0.717709 0 
0.249225 1.00019 0 
0.270471 0.12117 0 
0.277903 0.277903 0 
0.299819 0.476397 0 
0.336217 0.716652 0 
0.387099 0.998668 0 
0.474469 0.150241 0 
0.476397 0.299819 0 
0.49088 0.49088 0 
0.517918 0.723425 0 
0.55751 0.997454 0 
0.717709 0.192926 0 
0.716652 0.336217 0 
0.723425 0.517918 0 
0.738027 0.738027 0 
0.760459 0.996546 0 
1.00019 0.249225 0 
0.998668 0.387099 0 
0.997454 0.55751 0 
0.996546 0.760459 0 
0.995946 0.995946 0 

VECTORS Stress float
-626.189 -14.6054 -14.6054 
-646.033 -28.6196 -24.2461 
-651.227 -38.3143 -35.8491 
-641.771 -43.6894 -43.8946 
-617.663 -44.745 -42.8631 
-558.51 -24.2461 -28.6196 
-570.277 -23.8133 -23.8133 
-573.171 -25.6379 -26.7234 
-567.19 -29.7197 -31.5551 
-552.336 -36.0588 -32.514 
-503.671 -35.8491 -38.3143 
-503.925 -26.7234 -25.6379 
-500.64 -22.2378 -22.2378 
-493.816 -22.3925 -23.478 
-483.453 -27.1873 -24.7221 
-452.521 -43.8946 -43.6894 
-442.736 -31.5551 -29.7197 
-432.872 -23.478 -22.3925 
-422.928 -19.6632 -19.6632 
-412.905 -20.1109 -19.4875 
-395.907 -42.8631 -44.745 
-382.468 -32.514 -36.0588 
-369.101 -24.7221 -27.1873 
-355.807 -19.4875 -20.1109 
-342.585 -16.8102 -16.8102 
-395.67 -42.8599 -44.5204 
-382.224 -32.5138 -32.4276 
-368.849 -24.7227 -24.5443 
-355.544 -19.4867 -19.5499 
-342.311 -16.8058 -16.124 
-339.583 -46.3717 -46.2589 
-321.984 -34.4454 -34.211 
-305.38 -25.3048 -25.3833 
-289.77 -18.9496 -19.1941 
-275.156 -15.38 -15.0618 
-282.722 -46.5403 -46.6298 
-262.105 -34.8938 -34.8544 
-242.83 -25.5949 -25.5949 
-224.898 -18.6436 -18.683 
-208.309 -14.0398 -13.9503 
-225.111 -45.1683 -45.6332 
-202.162 -34.2784 -34.3577 
-180.654 -25.2576 -25.179 
-160.585 -18.1059 -18.0165 
-141.957 -12.8234 -12.7896 
-166.772 -44.0582 -43.2689 
-141.732 -33.0185 -32.721 
-118.303 -23.9571 -24.1356 
-96.4874 -16.874 -17.1946 
-76.2837 -11.7692 -11.5796 
-166.539 -44.0519 -44.0444 
-141.489 -33.0118 -32.9391 
-118.053 -23.9504 -23.9618 
-96.2307 -16.8677 -16.8924 
-76.0215 -11.7637 -11.5108 
-108.105 -41.0928 -41.2452 
-80.9421 -30.7274 -30.6937 
-55.5913 -22.0598 -22.0548 
-32.0525 -15.0903 -15.1451 
-10.3259 -9.81856 -9.78073 
-49.0573 -37.5823 -37.6808 
-19.9678 -27.6572 -27.6139 
7.12825 -19.3183 -19.3183 
32.2309 -12.5654 -12.6088 
55.3402 -7.39868 -7.30017 
10.4858 -33.2864 -33.3512 
41.4077 -23.7617 -23.6997 
70.1343 -15.7471 -15.7521 
96.6656 -9.24272 -9.28355 
121.002 -4.24853 -4.06911 
70.4054 -27.9709 -28.2563 
103.159 -19.0008 -18.9511 
133.456 -11.3677 -11.3563 
161.297 -5.07165 -5.16935 
186.683 -0.112617 -0.087569 
70.6462 -27.9481 -28.2211 
103.407 -18.9801 -18.9737 
133.71 -11.3484 -11.2901 
161.557 -5.05306 -4.99312 
186.946 -0.0940876 0.0940876 
131.275 -21.9098 -21.9324 
165.597 -13.4068 -13.3467 
197.271 -6.08868 -6.11435 
226.297 0.044636 -0.044636 
252.674 4.99312 5.05306 
192.629 -15.0446 -15.1029 
228.24 -7.05298 -7.02731 
261.043 1.26264e-10 1.21681e-10 
291.04 6.11435 6.08868 
318.231 11.2901 11.3484 
254.637 -7.6888 -7.73245 
291.119 0.0154623 -0.0154623 
324.764 7.02731 7.05298 
355.573 13.3467 13.4068 
383.545 18.9737 18.9801 
317.226 -0.178885 0.178885 
354.02 7.73245 7.6888 
388.171 15.1029 15.0446 
419.679 21.9324 21.9098 
448.544 28.2211 27.9481 
-628.397 -44.5204 -42.8599 
-610.095 -46.2589 -46.3717 
-590.906 -46.6298 -46.5403 
-570.83 -45.6332 -45.1683 
-549.867 -43.2689 -44.0582 
-553.833 -32.4276 -32.5138 
-538.418 -34.211 -34.4454 
-521.058 -34.8544 -34.8938 
-501.751 -34.3577 -34.2784 
-480.499 -32.721 -33.0185 
-481.854 -24.5443 -24.7227 
-467.265 -25.3833 -25.3048 
-450.742 -25.5949 -25.5949 
-432.283 -25.179 -25.2576 
-411.888 -24.1356 -23.9571 
-411.684 -19.5499 -19.4867 
-396.845 -19.1941 -18.9496 
-380.521 -18.683 -18.6436 
-362.714 -18.0165 -18.1059 
-343.423 -17.1946 -16.874 
-342.55 -16.124 -16.8058 
-327.365 -15.0618 -15.38 
-310.96 -13.9503 -14.0398 
-293.335 -12.7896 -12.8234 
-274.491 -11.5796 -11.7692 
-342.275 -16.1147 -16.1147 
-327.088 -15.0489 -14.7625 
-310.683 -13.9347 -13.686 
-293.058 -12.772 -12.6299 
-274.215 -11.5609 -11.3388 
-274.343 -14.7625 -15.0489 
-258.44 -12.45 -12.45 
-241.67 -10.5059 -10.6154 
-224.033 -8.93028 -9.11897 
-205.528 -7.72302 -7.53438 
-207.668 -13.686 -13.9347 
-190.629 -10.6154 -10.5059 
-173.18 -8.08831 -8.08831 
-155.321 -6.10466 -6.21415 
-137.053 -4.66448 -4.41582 
-141.67 -12.6299 -12.772 
-123.38 -9.11897 -8.93028 
-105.114 -6.21415 -6.10466 
-86.8737 -3.91549 -3.91549 
-68.6579 -2.22298 -1.98309 
-75.768 -11.3388 -11.5609 
-56.4189 -7.53438 -7.72302 
-37.3764 -4.41582 -4.66448 
-18.6406 -1.98309 -2.22298 
-0.211279 -0.236197 -0.236197 
-75.5047 -11.3328 -11.4919 
-56.1512 -7.52756 -7.33744 
-37.1056 -4.40839 -4.28545 
-18.3677 -1.97528 -1.90664 
0.0623735 -0.22825 0.22825 
-9.97302 -9.5623 -9.76191 
10.6223 -5.65999 -5.62497 
30.5383 -2.44773 -2.50186 
49.7748 0.0744786 -0.0744786 
68.3318 1.90664 1.97528 
55.6494 -7.15854 -7.28148 
77.3607 -3.22014 -3.16601 
98.1199 1.30039e-10 1.35098e-10 
117.927 2.50186 2.44773 
136.782 4.28545 4.40839 
121.346 -3.99142 -4.05057 
144.084 -0.0394592 0.0394592 
165.672 3.16601 3.22014 
186.109 5.62497 5.65999 
205.397 7.33744 7.52756 
187.101 0.0691887 -0.0691887 
210.812 4.05057 3.99142 
233.225 7.28148 7.15854 
254.342 9.76191 9.5623 
274.161 11.4919 11.3328 
187.364 0.087569 0.112617 
211.079 4.06911 4.24853 
233.496 7.30017 7.39868 
254.615 9.78073 9.81856 
274.436 11.5108 11.7637 
253.053 5.16935 5.07165 
277.748 9.28355 9.24272 
301.003 12.6088 12.5654 
322.818 15.1451 15.0903 
343.193 16.8924 16.8677 
318.711 11.3563 11.3677 
344.227 15.7521 15.7471 
368.301 19.3183 19.3183 
390.931 22.0548 22.0598 
412.117 23.9618 23.9504 
384.071 18.9511 19.0008 
410.415 23.6997 23.7617 
435.318 27.6139 27.6572 
458.78 30.6937 30.7274 
480.8 32.9391 33.0118 
448.868 28.2563 27.9709 
476.209 33.3512 33.2864 
501.984 37.6808 37.5823 
526.19 41.2452 41.0928 
548.83 44.0444 44.0519 
-548.83 -44.0444 -44.0519 
-526.19 -41.2452 -41.0928 
-501.984 -37.6808 -37.5823 
-476.209 -33.3512 -33.2864 
-448.868 -28.2563 -27.9709 
-480.8 -32.9391 -33.0118 
-458.78 -30.6937 -30.7274 
-435.318 -27.6139 -27.6572 
-410.415 -23.6997 -23.7617 
-384.071 -18.9511 -19.0008 
-412.117 -23.9618 -23.9504 
-390.931 -22.0548 -22.0598 
-368.301 -19.3183 -19.3183 
-344.227 -15.7521 -15.7471 
-318.711 -11.3563 -11.3677 
-343.193 -16.8924 -16.8677 
-322.818 -15.1451 -15.0903 
-301.003 -12.6088 -12.5654 
-277.748 -9.28355 -9.24272 
-253.053 -5.16935 -5.07165 
-274.436 -11.5108 -11.7637 
-254.615 -9.78073 -9.81856 
-233.496 -7.30017 -7.39868 
-211.079 -4.06911 -4.24853 
-187.364 -0.087569 -0.112617 
-274.161 -11.4919 -11.3328 
-254.342 -9.76191 -9.5623 
-233.225 -7.28148 -7.15854 
-210.812 -4.05057 -3.99142 
-187.101 -0.0691887 0.0691887 
-205.397 -7.33744 -7.52756 
-186.109 -5.62497 -5.65999 
-165.672 -3.16601 -3.22014 
-144.084 0.0394592 -0.0394592 
-121.346 3.99142 4.05057 
-136.782 -4.28545 -4.40839 
-117.927 -2.50186 -2.44773 
-98.1199 2.36985e-11 3.07059e-11 
-77.3607 3.22014 3.16601 
-55.6494 7.15854 7.28148 
-68.3318 -1.90664 -1.97528 
-49.7748 -0.0744786 0.0744786 
-30.5383 2.44773 2.50186 
-10.6223 5.65999 5.62497 
9.97302 9.5623 9.76191 
-0.0623735 0.22825 -0.22825 
18.3677 1.97528 1.90664 
37.1056 4.40839 4.28545 
56.1512 7.52756 7.33744 
75.5047 11.3328 11.4919 
0.211279 0.236197 0.236197 
18.6406 1.98309 2.22298 
37.3764 4.41582 4.66448 
56.4189 7.53438 7.72302 
75.768 11.3388 11.5609 
68.6579 2.22298 1.98309 
86.8737 3.91549 3.91549 
105.114 6.21415 6.10466 
123.38 9.11897 8.93028 
141.67 12.6299 12.772 
137.053 4.66448 4.41582 
155.321 6.10466 6.21415 
173.18 8.08831 8.08831 
190.629 10.6154 10.5059 
207.668 13.686 13.9347 
205.528 7.72302 7.53438 
224.033 8.93028 9.11897 
241.67 10.5059 10.6154 
258.44 12.45 12.45 
274.343 14.7625 15.0489 
274.215 11.5609 11.3388 
293.058 12.772 12.6299 
310.683 13.9347 13.686 
327.088 15.0489 14.7625 
342.275 16.1147 16.1147 
274.491 11.5796 11.7692 
293.335 12.7896 12.8234 
310.96 13.9503 14.0398 
327.365 15.0618 15.38 
342.55 16.124 16.8058 
343.423 17.1946 16.874 
362.714 18.0165 18.1059 
380.521 18.683 18.6436 
396.845 19.1941 18.9496 
411.684 19.5499 19.4867 
411.888 24.1356 23.9571 
432.283 25.179 25.2576 
450.742 25.5949 25.5949 
467.265 25.3833 25.3048 
481.854 24.5443 24.7227 
480.499 32.721 33.0185 
501.751 34.3577 34.2784 
521.058 34.8544 34.8938 
538.418 34.211 34.4454 
553.833 32.4276 32.5138 
549.867 43.2689 44.0582 
570.83 45.6332 45.1683 
590.906 46.6298 46.5403 
610.095 46.2589 46.3717 
628.397 44.5204 42.8599 
-448.544 -28.2211 -27.9481 
-419.679 -21.9324 -21.9098 
-388.171 -15.1029 -15.0446 
-354.02 -7.73245 -7.6888 
-317.226 0.178885 -0.178885 
-383.545 -18.9737 -18.9801 
-355.573 -13.3467 -13.4068 
-324.764 -7.02731 -7.05298 
-291.119 -0.0154623 0.0154623 
-254.637 7.6888 7.73245 
-318.231 -11.2901 -11.3484 
-291.04 -6.11435 -6.08868 
-261.043 8.7202e-12 2.17069e-11 
-228.24 7.05298 7.02731 
-192.629 15.0446 15.1029 
-252.674 -4.99312 -5.05306 
-226.297 -0.044636 0.044636 
-197.271 6.08868 6.11435 
-165.597 13.4068 13.3467 
-131.275 21.9098 21.9324 
-186.946 0.0940876 -0.0940876 
-161.557 5.05306 4.99312 
-133.71 11.3484 11.2901 
-103.407 18.9801 18.9737 
-70.6462 27.9481 28.2211 
-186.683 0.112617 0.087569 
-161.297 5.07165 5.16935 
-133.456 11.3677 11.3563 
-103.159 19.0008 18.9511 
-70.4054 27.9709 28.2563 
-121.002 4.24853 4.06911 
-96.6656 9.24272 9.28355 
-70.1343 15.7471 15.7521 
-41.4077 23.7617 23.6997 
-10.4858 33.2864 33.3512 
-55.3402 7.39868 7.30017 
-32.2309 12.5654 12.6088 
-7.12825 19.3183 19.3183 
19.9678 27.6572 27.6139 
49.0573 37.5823 37.6808 
10.3259 9.81856 9.78073 
32.0525 15.0903 15.1451 
55.5913 22.0598 22.0548 
80.9421 30.7274 30.6937 
108.105 41.0928 41.2452 
76.0215 11.7637 11.5108 
96.2307 16.8677 16.8924 
118.053 23.9504 23.9618 
141.489 33.0118 32.9391 
166.539 44.0519 44.0444 
76.2837 11.7692 11.5796 
96.4874 16.874 17.1946 
118.303 23.9571 24.1356 
141.732 33.0185 32.721 
166.772 44.0582 43.2689 
141.957 12.8234 12.7896 
160.585 18.1059 18.0165 
180.654 25.2576 25.179 
202.162 34.2784 34.3577 
225.111 45.1683 45.6332 
208.309 14.0398 13.9503 
224.898 18.6436 18.683 
242.83 25.5949 25.5949 
262.105 34.8938 34.8544 
282.722 46.5403 46.6298 
275.156 15.38 15.0618 
289.77 18.9496 19.1941 
305.38 25.3048 25.3833 
321.984 34.4454 34.211 
339.583 46.3717 46.2589 
342.311 16.8058 16.124 
355.544 19.4867 19.5499 
368.849 24.7227 24.5443 
382.224 32.5138 32.4276 
395.67 42.8599 44.5204 
342.585 16.8102 16.8102 
355.807 19.4875 20.1109 
369.101 24.7221 27.1873 
382.468 32.514 36.0588 
395.907 42.8631 44.745 
412.905 20.1109 19.4875 
422.928 19.6632 19.6632 
432.872 23.478 22.3925 
442.736 31.5551 29.7197 
452.521 43.8946 43.6894 
483.453 27.1873 24.7221 
493.816 22.3925 23.478 
500.64 22.2378 22.2378 
503.925 26.7234 25.6379 
503.671 35.8491 38.3143 
552.336 36.0588 32.514 
567.19 29.7197 31.5551 
573.171 25.6379 26.7234 
570.277 23.8133 23.8133 
558.51 24.2461 28.6196 
617.663 44.745 42.8631 
641.771 43.6894 43.8946 
651.227 38.3143 35.8491 
646.033 28.6196 24.2461 
626.189 14.6054 14.6054 

